(declare-fun src_reg_6_53 () (_ BitVec 32))
(declare-fun src_reg_6_19 () (_ BitVec 32))
(declare-fun src_reg_6_52 () (_ BitVec 64))
(declare-fun src_reg_6_18 () (_ BitVec 64))
(declare-fun src_reg_6_51 () (_ BitVec 64))
(declare-fun src_reg_6_17 () (_ BitVec 64))
(declare-fun src_reg_6_50 () (_ BitVec 64))
(declare-fun src_reg_6_16 () (_ BitVec 64))
(declare-fun src_reg_6_49 () (_ BitVec 64))
(declare-fun src_reg_6_15 () (_ BitVec 64))
(declare-fun src_reg_6_48 () (_ BitVec 64))
(declare-fun src_reg_6_14 () (_ BitVec 64))
(declare-fun src_reg_6_47 () (_ BitVec 64))
(declare-fun src_reg_6_13 () (_ BitVec 64))
(declare-fun src_reg_6_46 () (_ BitVec 32))
(declare-fun src_reg_6_12 () (_ BitVec 32))
(declare-fun src_reg_6_45 () (_ BitVec 32))
(declare-fun src_reg_6_11 () (_ BitVec 32))
(declare-fun src_reg_6_44 () (_ BitVec 32))
(declare-fun dst_reg_6_43 () (_ BitVec 32))
(declare-fun dst_reg_6_9 () (_ BitVec 32))
(declare-fun dst_reg_6_42 () (_ BitVec 64))
(declare-fun dst_reg_6_41 () (_ BitVec 64))
(declare-fun dst_reg_6_40 () (_ BitVec 64))
(declare-fun dst_reg_6_39 () (_ BitVec 64))
(declare-fun dst_reg_6_38 () (_ BitVec 64))
(declare-fun i11.i.i_6_30 () (_ BitVec 64))
(declare-fun dst_reg_6_37 () (_ BitVec 64))
(declare-fun and4.i.i.i_6_33 () (_ BitVec 64))
(declare-fun dst_reg_6_36 () (_ BitVec 32))
(declare-fun dst_reg_6_2 () (_ BitVec 32))
(declare-fun dst_reg_6_35 () (_ BitVec 32))
(declare-fun dst_reg_6_1 () (_ BitVec 32))
(declare-fun dst_reg_6_34 () (_ BitVec 32))
(declare-fun neg.i.i.i_6_32 () (_ BitVec 64))
(declare-fun i9.i.i_6_29 () (_ BitVec 64))
(declare-fun src_reg_6_10 () (_ BitVec 32))
(declare-fun dst_reg_6_8 () (_ BitVec 64))
(declare-fun dst_reg_6_7 () (_ BitVec 64))
(declare-fun dst_reg_6_6 () (_ BitVec 64))
(declare-fun dst_reg_6_5 () (_ BitVec 64))
(declare-fun dst_reg_6_4 () (_ BitVec 64))
(declare-fun dst_reg_6_3 () (_ BitVec 64))
(declare-fun dst_reg_6_0 () (_ BitVec 32))
(assert (and (= dst_reg_6_0 dst_reg_6_0)
     (= dst_reg_6_1 dst_reg_6_1)
     (= dst_reg_6_2 dst_reg_6_2)
     (= dst_reg_6_3 dst_reg_6_3)
     (= dst_reg_6_4 dst_reg_6_4)
     (= dst_reg_6_5 dst_reg_6_5)
     (= dst_reg_6_6 dst_reg_6_6)
     (= dst_reg_6_7 dst_reg_6_7)
     (= dst_reg_6_8 dst_reg_6_8)
     (= dst_reg_6_9 dst_reg_6_9)
     (= src_reg_6_10 src_reg_6_10)
     (= src_reg_6_11 src_reg_6_11)
     (= src_reg_6_12 src_reg_6_12)
     (= src_reg_6_13 src_reg_6_13)
     (= src_reg_6_14 src_reg_6_14)
     (= src_reg_6_15 src_reg_6_15)
     (= src_reg_6_16 src_reg_6_16)
     (= src_reg_6_17 src_reg_6_17)
     (= src_reg_6_18 src_reg_6_18)
     (= src_reg_6_19 src_reg_6_19)
     (= #x0000000000000000 i9.i.i_6_29)
     (= #xffffffffffffffff i11.i.i_6_30)
     (= neg.i.i.i_6_32 (bvxor i11.i.i_6_30 #xffffffffffffffff))
     (= and4.i.i.i_6_33 (bvand i9.i.i_6_29 neg.i.i.i_6_32))
     (= #x00000001 dst_reg_6_34)
     (= dst_reg_6_1 dst_reg_6_35)
     (= dst_reg_6_2 dst_reg_6_36)
     (= and4.i.i.i_6_33 dst_reg_6_37)
     (= i11.i.i_6_30 dst_reg_6_38)
     (= #x8000000000000000 dst_reg_6_39)
     (= #x7fffffffffffffff dst_reg_6_40)
     (= #x0000000000000000 dst_reg_6_41)
     (= #xffffffffffffffff dst_reg_6_42)
     (= dst_reg_6_9 dst_reg_6_43)
     (= #x00000001 src_reg_6_44)
     (= src_reg_6_11 src_reg_6_45)
     (= src_reg_6_12 src_reg_6_46)
     (= src_reg_6_13 src_reg_6_47)
     (= src_reg_6_14 src_reg_6_48)
     (= src_reg_6_15 src_reg_6_49)
     (= src_reg_6_16 src_reg_6_50)
     (= src_reg_6_17 src_reg_6_51)
     (= src_reg_6_18 src_reg_6_52)
     (= src_reg_6_19 src_reg_6_53)))

;{"dst_reg":["dst_reg_6_0",[""],"dst_reg_6_1","dst_reg_6_2",["dst_reg_6_3","dst_reg_6_4"],"dst_reg_6_5","dst_reg_6_6","dst_reg_6_7","dst_reg_6_8","dst_reg_6_9"],"src_reg":["src_reg_6_10",[""],"src_reg_6_11","src_reg_6_12",["src_reg_6_13","src_reg_6_14"],"src_reg_6_15","src_reg_6_16","src_reg_6_17","src_reg_6_18","src_reg_6_19"]}
;{"dst_reg":["dst_reg_6_34",[""],"dst_reg_6_35","dst_reg_6_36",["dst_reg_6_37","dst_reg_6_38"],"dst_reg_6_39","dst_reg_6_40","dst_reg_6_41","dst_reg_6_42","dst_reg_6_43"],"src_reg":["src_reg_6_44",[""],"src_reg_6_45","src_reg_6_46",["src_reg_6_47","src_reg_6_48"],"src_reg_6_49","src_reg_6_50","src_reg_6_51","src_reg_6_52","src_reg_6_53"]}
